TCS_Benchmarks/redos_fix/snort3_output_distinct_3225_3224_48_0.txt
((.|\n|\r)*)([0-9A-Za-z]+)
((.|\n|\r)*)([vV][aA][rR]\s+[0-9A-Za-z]\s+=\s+)([0-9A-Za-z]+)